Maximize 
c_e0e4 + c_e0e6 + c_e0e8 + c_e4e0 + c_e4e6 + c_e4e8 + c_e6e0 + c_e6e4 + c_e6e8 + c_e8e0 + c_e8e4 + c_e8e6 + c_e5e12 + c_e12e5 + c_e5e1 + c_e5e7 + c_e1e5 + c_e1e7 + c_e7e5 + c_e7e1 + c_e1e2 + c_e2e1 + c_e12e2 + c_e12e3 + c_e12e9 + c_e12e10 + c_e2e12 + c_e2e3 + c_e2e9 + c_e2e10 + c_e3e12 + c_e3e2 + c_e3e9 + c_e3e10 + c_e9e12 + c_e9e2 + c_e9e3 + c_e9e10 + c_e10e12 + c_e10e2 + c_e10e3 + c_e10e9 + c_e4e7 + c_e4e3 + c_e4e11 + c_e7e4 + c_e7e3 + c_e7e11 + c_e3e4 + c_e3e7 + c_e3e11 + c_e11e4 + c_e11e7 + c_e11e3 + c_e8e9 + c_e9e8 + c_e10e11 + c_e11e10 
Subject To 
x_e0e4 + x_e4e6 - x_e0e6 >= 0
- x_e0e4 - x_e4e6 + x_e0e6 >= - 1
x_e0e4 + x_e4e8 - x_e0e8 >= 0
- x_e0e4 - x_e4e8 + x_e0e8 >= - 1
x_e0e4 + x_e4e5 - x_e0e5 >= 0
- x_e0e4 - x_e4e5 + x_e0e5 >= - 1
x_e0e4 + x_e4e12 - x_e0e12 >= 0
- x_e0e4 - x_e4e12 + x_e0e12 >= - 1
x_e0e4 + x_e4e1 - x_e0e1 >= 0
- x_e0e4 - x_e4e1 + x_e0e1 >= - 1
x_e0e4 + x_e4e7 - x_e0e7 >= 0
- x_e0e4 - x_e4e7 + x_e0e7 >= - 1
x_e0e4 + x_e4e2 - x_e0e2 >= 0
- x_e0e4 - x_e4e2 + x_e0e2 >= - 1
x_e0e4 + x_e4e3 - x_e0e3 >= 0
- x_e0e4 - x_e4e3 + x_e0e3 >= - 1
x_e0e4 + x_e4e9 - x_e0e9 >= 0
- x_e0e4 - x_e4e9 + x_e0e9 >= - 1
x_e0e4 + x_e4e10 - x_e0e10 >= 0
- x_e0e4 - x_e4e10 + x_e0e10 >= - 1
x_e0e4 + x_e4e11 - x_e0e11 >= 0
- x_e0e4 - x_e4e11 + x_e0e11 >= - 1
x_e0e6 + x_e6e8 - x_e0e8 >= 0
- x_e0e6 - x_e6e8 + x_e0e8 >= - 1
x_e0e6 + x_e6e5 - x_e0e5 >= 0
- x_e0e6 - x_e6e5 + x_e0e5 >= - 1
x_e0e6 + x_e6e12 - x_e0e12 >= 0
- x_e0e6 - x_e6e12 + x_e0e12 >= - 1
x_e0e6 + x_e6e1 - x_e0e1 >= 0
- x_e0e6 - x_e6e1 + x_e0e1 >= - 1
x_e0e6 + x_e6e7 - x_e0e7 >= 0
- x_e0e6 - x_e6e7 + x_e0e7 >= - 1
x_e0e6 + x_e6e2 - x_e0e2 >= 0
- x_e0e6 - x_e6e2 + x_e0e2 >= - 1
x_e0e6 + x_e6e3 - x_e0e3 >= 0
- x_e0e6 - x_e6e3 + x_e0e3 >= - 1
x_e0e6 + x_e6e9 - x_e0e9 >= 0
- x_e0e6 - x_e6e9 + x_e0e9 >= - 1
x_e0e6 + x_e6e10 - x_e0e10 >= 0
- x_e0e6 - x_e6e10 + x_e0e10 >= - 1
x_e0e6 + x_e6e11 - x_e0e11 >= 0
- x_e0e6 - x_e6e11 + x_e0e11 >= - 1
x_e0e8 + x_e8e5 - x_e0e5 >= 0
- x_e0e8 - x_e8e5 + x_e0e5 >= - 1
x_e0e8 + x_e8e12 - x_e0e12 >= 0
- x_e0e8 - x_e8e12 + x_e0e12 >= - 1
x_e0e8 + x_e8e1 - x_e0e1 >= 0
- x_e0e8 - x_e8e1 + x_e0e1 >= - 1
x_e0e8 + x_e8e7 - x_e0e7 >= 0
- x_e0e8 - x_e8e7 + x_e0e7 >= - 1
x_e0e8 + x_e8e2 - x_e0e2 >= 0
- x_e0e8 - x_e8e2 + x_e0e2 >= - 1
x_e0e8 + x_e8e3 - x_e0e3 >= 0
- x_e0e8 - x_e8e3 + x_e0e3 >= - 1
x_e0e8 + x_e8e9 - x_e0e9 >= 0
- x_e0e8 - x_e8e9 + x_e0e9 >= - 1
x_e0e8 + x_e8e10 - x_e0e10 >= 0
- x_e0e8 - x_e8e10 + x_e0e10 >= - 1
x_e0e8 + x_e8e11 - x_e0e11 >= 0
- x_e0e8 - x_e8e11 + x_e0e11 >= - 1
x_e0e5 + x_e5e12 - x_e0e12 >= 0
- x_e0e5 - x_e5e12 + x_e0e12 >= - 1
x_e0e5 + x_e5e1 - x_e0e1 >= 0
- x_e0e5 - x_e5e1 + x_e0e1 >= - 1
x_e0e5 + x_e5e7 - x_e0e7 >= 0
- x_e0e5 - x_e5e7 + x_e0e7 >= - 1
x_e0e5 + x_e5e2 - x_e0e2 >= 0
- x_e0e5 - x_e5e2 + x_e0e2 >= - 1
x_e0e5 + x_e5e3 - x_e0e3 >= 0
- x_e0e5 - x_e5e3 + x_e0e3 >= - 1
x_e0e5 + x_e5e9 - x_e0e9 >= 0
- x_e0e5 - x_e5e9 + x_e0e9 >= - 1
x_e0e5 + x_e5e10 - x_e0e10 >= 0
- x_e0e5 - x_e5e10 + x_e0e10 >= - 1
x_e0e5 + x_e5e11 - x_e0e11 >= 0
- x_e0e5 - x_e5e11 + x_e0e11 >= - 1
x_e0e12 + x_e12e1 - x_e0e1 >= 0
- x_e0e12 - x_e12e1 + x_e0e1 >= - 1
x_e0e12 + x_e12e7 - x_e0e7 >= 0
- x_e0e12 - x_e12e7 + x_e0e7 >= - 1
x_e0e12 + x_e12e2 - x_e0e2 >= 0
- x_e0e12 - x_e12e2 + x_e0e2 >= - 1
x_e0e12 + x_e12e3 - x_e0e3 >= 0
- x_e0e12 - x_e12e3 + x_e0e3 >= - 1
x_e0e12 + x_e12e9 - x_e0e9 >= 0
- x_e0e12 - x_e12e9 + x_e0e9 >= - 1
x_e0e12 + x_e12e10 - x_e0e10 >= 0
- x_e0e12 - x_e12e10 + x_e0e10 >= - 1
x_e0e12 + x_e12e11 - x_e0e11 >= 0
- x_e0e12 - x_e12e11 + x_e0e11 >= - 1
x_e0e1 + x_e1e7 - x_e0e7 >= 0
- x_e0e1 - x_e1e7 + x_e0e7 >= - 1
x_e0e1 + x_e1e2 - x_e0e2 >= 0
- x_e0e1 - x_e1e2 + x_e0e2 >= - 1
x_e0e1 + x_e1e3 - x_e0e3 >= 0
- x_e0e1 - x_e1e3 + x_e0e3 >= - 1
x_e0e1 + x_e1e9 - x_e0e9 >= 0
- x_e0e1 - x_e1e9 + x_e0e9 >= - 1
x_e0e1 + x_e1e10 - x_e0e10 >= 0
- x_e0e1 - x_e1e10 + x_e0e10 >= - 1
x_e0e1 + x_e1e11 - x_e0e11 >= 0
- x_e0e1 - x_e1e11 + x_e0e11 >= - 1
x_e0e7 + x_e7e2 - x_e0e2 >= 0
- x_e0e7 - x_e7e2 + x_e0e2 >= - 1
x_e0e7 + x_e7e3 - x_e0e3 >= 0
- x_e0e7 - x_e7e3 + x_e0e3 >= - 1
x_e0e7 + x_e7e9 - x_e0e9 >= 0
- x_e0e7 - x_e7e9 + x_e0e9 >= - 1
x_e0e7 + x_e7e10 - x_e0e10 >= 0
- x_e0e7 - x_e7e10 + x_e0e10 >= - 1
x_e0e7 + x_e7e11 - x_e0e11 >= 0
- x_e0e7 - x_e7e11 + x_e0e11 >= - 1
x_e0e2 + x_e2e3 - x_e0e3 >= 0
- x_e0e2 - x_e2e3 + x_e0e3 >= - 1
x_e0e2 + x_e2e9 - x_e0e9 >= 0
- x_e0e2 - x_e2e9 + x_e0e9 >= - 1
x_e0e2 + x_e2e10 - x_e0e10 >= 0
- x_e0e2 - x_e2e10 + x_e0e10 >= - 1
x_e0e2 + x_e2e11 - x_e0e11 >= 0
- x_e0e2 - x_e2e11 + x_e0e11 >= - 1
x_e0e3 + x_e3e9 - x_e0e9 >= 0
- x_e0e3 - x_e3e9 + x_e0e9 >= - 1
x_e0e3 + x_e3e10 - x_e0e10 >= 0
- x_e0e3 - x_e3e10 + x_e0e10 >= - 1
x_e0e3 + x_e3e11 - x_e0e11 >= 0
- x_e0e3 - x_e3e11 + x_e0e11 >= - 1
x_e0e9 + x_e9e10 - x_e0e10 >= 0
- x_e0e9 - x_e9e10 + x_e0e10 >= - 1
x_e0e9 + x_e9e11 - x_e0e11 >= 0
- x_e0e9 - x_e9e11 + x_e0e11 >= - 1
x_e0e10 + x_e10e11 - x_e0e11 >= 0
- x_e0e10 - x_e10e11 + x_e0e11 >= - 1
x_e4e6 + x_e6e8 - x_e4e8 >= 0
- x_e4e6 - x_e6e8 + x_e4e8 >= - 1
x_e4e6 + x_e6e5 - x_e4e5 >= 0
- x_e4e6 - x_e6e5 + x_e4e5 >= - 1
x_e4e6 + x_e6e12 - x_e4e12 >= 0
- x_e4e6 - x_e6e12 + x_e4e12 >= - 1
x_e4e6 + x_e6e1 - x_e4e1 >= 0
- x_e4e6 - x_e6e1 + x_e4e1 >= - 1
x_e4e6 + x_e6e7 - x_e4e7 >= 0
- x_e4e6 - x_e6e7 + x_e4e7 >= - 1
x_e4e6 + x_e6e2 - x_e4e2 >= 0
- x_e4e6 - x_e6e2 + x_e4e2 >= - 1
x_e4e6 + x_e6e3 - x_e4e3 >= 0
- x_e4e6 - x_e6e3 + x_e4e3 >= - 1
x_e4e6 + x_e6e9 - x_e4e9 >= 0
- x_e4e6 - x_e6e9 + x_e4e9 >= - 1
x_e4e6 + x_e6e10 - x_e4e10 >= 0
- x_e4e6 - x_e6e10 + x_e4e10 >= - 1
x_e4e6 + x_e6e11 - x_e4e11 >= 0
- x_e4e6 - x_e6e11 + x_e4e11 >= - 1
x_e4e8 + x_e8e5 - x_e4e5 >= 0
- x_e4e8 - x_e8e5 + x_e4e5 >= - 1
x_e4e8 + x_e8e12 - x_e4e12 >= 0
- x_e4e8 - x_e8e12 + x_e4e12 >= - 1
x_e4e8 + x_e8e1 - x_e4e1 >= 0
- x_e4e8 - x_e8e1 + x_e4e1 >= - 1
x_e4e8 + x_e8e7 - x_e4e7 >= 0
- x_e4e8 - x_e8e7 + x_e4e7 >= - 1
x_e4e8 + x_e8e2 - x_e4e2 >= 0
- x_e4e8 - x_e8e2 + x_e4e2 >= - 1
x_e4e8 + x_e8e3 - x_e4e3 >= 0
- x_e4e8 - x_e8e3 + x_e4e3 >= - 1
x_e4e8 + x_e8e9 - x_e4e9 >= 0
- x_e4e8 - x_e8e9 + x_e4e9 >= - 1
x_e4e8 + x_e8e10 - x_e4e10 >= 0
- x_e4e8 - x_e8e10 + x_e4e10 >= - 1
x_e4e8 + x_e8e11 - x_e4e11 >= 0
- x_e4e8 - x_e8e11 + x_e4e11 >= - 1
x_e4e5 + x_e5e12 - x_e4e12 >= 0
- x_e4e5 - x_e5e12 + x_e4e12 >= - 1
x_e4e5 + x_e5e1 - x_e4e1 >= 0
- x_e4e5 - x_e5e1 + x_e4e1 >= - 1
x_e4e5 + x_e5e7 - x_e4e7 >= 0
- x_e4e5 - x_e5e7 + x_e4e7 >= - 1
x_e4e5 + x_e5e2 - x_e4e2 >= 0
- x_e4e5 - x_e5e2 + x_e4e2 >= - 1
x_e4e5 + x_e5e3 - x_e4e3 >= 0
- x_e4e5 - x_e5e3 + x_e4e3 >= - 1
x_e4e5 + x_e5e9 - x_e4e9 >= 0
- x_e4e5 - x_e5e9 + x_e4e9 >= - 1
x_e4e5 + x_e5e10 - x_e4e10 >= 0
- x_e4e5 - x_e5e10 + x_e4e10 >= - 1
x_e4e5 + x_e5e11 - x_e4e11 >= 0
- x_e4e5 - x_e5e11 + x_e4e11 >= - 1
x_e4e12 + x_e12e1 - x_e4e1 >= 0
- x_e4e12 - x_e12e1 + x_e4e1 >= - 1
x_e4e12 + x_e12e7 - x_e4e7 >= 0
- x_e4e12 - x_e12e7 + x_e4e7 >= - 1
x_e4e12 + x_e12e2 - x_e4e2 >= 0
- x_e4e12 - x_e12e2 + x_e4e2 >= - 1
x_e4e12 + x_e12e3 - x_e4e3 >= 0
- x_e4e12 - x_e12e3 + x_e4e3 >= - 1
x_e4e12 + x_e12e9 - x_e4e9 >= 0
- x_e4e12 - x_e12e9 + x_e4e9 >= - 1
x_e4e12 + x_e12e10 - x_e4e10 >= 0
- x_e4e12 - x_e12e10 + x_e4e10 >= - 1
x_e4e12 + x_e12e11 - x_e4e11 >= 0
- x_e4e12 - x_e12e11 + x_e4e11 >= - 1
x_e4e1 + x_e1e7 - x_e4e7 >= 0
- x_e4e1 - x_e1e7 + x_e4e7 >= - 1
x_e4e1 + x_e1e2 - x_e4e2 >= 0
- x_e4e1 - x_e1e2 + x_e4e2 >= - 1
x_e4e1 + x_e1e3 - x_e4e3 >= 0
- x_e4e1 - x_e1e3 + x_e4e3 >= - 1
x_e4e1 + x_e1e9 - x_e4e9 >= 0
- x_e4e1 - x_e1e9 + x_e4e9 >= - 1
x_e4e1 + x_e1e10 - x_e4e10 >= 0
- x_e4e1 - x_e1e10 + x_e4e10 >= - 1
x_e4e1 + x_e1e11 - x_e4e11 >= 0
- x_e4e1 - x_e1e11 + x_e4e11 >= - 1
x_e4e7 + x_e7e2 - x_e4e2 >= 0
- x_e4e7 - x_e7e2 + x_e4e2 >= - 1
x_e4e7 + x_e7e3 - x_e4e3 >= 0
- x_e4e7 - x_e7e3 + x_e4e3 >= - 1
x_e4e7 + x_e7e9 - x_e4e9 >= 0
- x_e4e7 - x_e7e9 + x_e4e9 >= - 1
x_e4e7 + x_e7e10 - x_e4e10 >= 0
- x_e4e7 - x_e7e10 + x_e4e10 >= - 1
x_e4e7 + x_e7e11 - x_e4e11 >= 0
- x_e4e7 - x_e7e11 + x_e4e11 >= - 1
x_e4e2 + x_e2e3 - x_e4e3 >= 0
- x_e4e2 - x_e2e3 + x_e4e3 >= - 1
x_e4e2 + x_e2e9 - x_e4e9 >= 0
- x_e4e2 - x_e2e9 + x_e4e9 >= - 1
x_e4e2 + x_e2e10 - x_e4e10 >= 0
- x_e4e2 - x_e2e10 + x_e4e10 >= - 1
x_e4e2 + x_e2e11 - x_e4e11 >= 0
- x_e4e2 - x_e2e11 + x_e4e11 >= - 1
x_e4e3 + x_e3e9 - x_e4e9 >= 0
- x_e4e3 - x_e3e9 + x_e4e9 >= - 1
x_e4e3 + x_e3e10 - x_e4e10 >= 0
- x_e4e3 - x_e3e10 + x_e4e10 >= - 1
x_e4e3 + x_e3e11 - x_e4e11 >= 0
- x_e4e3 - x_e3e11 + x_e4e11 >= - 1
x_e4e9 + x_e9e10 - x_e4e10 >= 0
- x_e4e9 - x_e9e10 + x_e4e10 >= - 1
x_e4e9 + x_e9e11 - x_e4e11 >= 0
- x_e4e9 - x_e9e11 + x_e4e11 >= - 1
x_e4e10 + x_e10e11 - x_e4e11 >= 0
- x_e4e10 - x_e10e11 + x_e4e11 >= - 1
x_e6e8 + x_e8e5 - x_e6e5 >= 0
- x_e6e8 - x_e8e5 + x_e6e5 >= - 1
x_e6e8 + x_e8e12 - x_e6e12 >= 0
- x_e6e8 - x_e8e12 + x_e6e12 >= - 1
x_e6e8 + x_e8e1 - x_e6e1 >= 0
- x_e6e8 - x_e8e1 + x_e6e1 >= - 1
x_e6e8 + x_e8e7 - x_e6e7 >= 0
- x_e6e8 - x_e8e7 + x_e6e7 >= - 1
x_e6e8 + x_e8e2 - x_e6e2 >= 0
- x_e6e8 - x_e8e2 + x_e6e2 >= - 1
x_e6e8 + x_e8e3 - x_e6e3 >= 0
- x_e6e8 - x_e8e3 + x_e6e3 >= - 1
x_e6e8 + x_e8e9 - x_e6e9 >= 0
- x_e6e8 - x_e8e9 + x_e6e9 >= - 1
x_e6e8 + x_e8e10 - x_e6e10 >= 0
- x_e6e8 - x_e8e10 + x_e6e10 >= - 1
x_e6e8 + x_e8e11 - x_e6e11 >= 0
- x_e6e8 - x_e8e11 + x_e6e11 >= - 1
x_e6e5 + x_e5e12 - x_e6e12 >= 0
- x_e6e5 - x_e5e12 + x_e6e12 >= - 1
x_e6e5 + x_e5e1 - x_e6e1 >= 0
- x_e6e5 - x_e5e1 + x_e6e1 >= - 1
x_e6e5 + x_e5e7 - x_e6e7 >= 0
- x_e6e5 - x_e5e7 + x_e6e7 >= - 1
x_e6e5 + x_e5e2 - x_e6e2 >= 0
- x_e6e5 - x_e5e2 + x_e6e2 >= - 1
x_e6e5 + x_e5e3 - x_e6e3 >= 0
- x_e6e5 - x_e5e3 + x_e6e3 >= - 1
x_e6e5 + x_e5e9 - x_e6e9 >= 0
- x_e6e5 - x_e5e9 + x_e6e9 >= - 1
x_e6e5 + x_e5e10 - x_e6e10 >= 0
- x_e6e5 - x_e5e10 + x_e6e10 >= - 1
x_e6e5 + x_e5e11 - x_e6e11 >= 0
- x_e6e5 - x_e5e11 + x_e6e11 >= - 1
x_e6e12 + x_e12e1 - x_e6e1 >= 0
- x_e6e12 - x_e12e1 + x_e6e1 >= - 1
x_e6e12 + x_e12e7 - x_e6e7 >= 0
- x_e6e12 - x_e12e7 + x_e6e7 >= - 1
x_e6e12 + x_e12e2 - x_e6e2 >= 0
- x_e6e12 - x_e12e2 + x_e6e2 >= - 1
x_e6e12 + x_e12e3 - x_e6e3 >= 0
- x_e6e12 - x_e12e3 + x_e6e3 >= - 1
x_e6e12 + x_e12e9 - x_e6e9 >= 0
- x_e6e12 - x_e12e9 + x_e6e9 >= - 1
x_e6e12 + x_e12e10 - x_e6e10 >= 0
- x_e6e12 - x_e12e10 + x_e6e10 >= - 1
x_e6e12 + x_e12e11 - x_e6e11 >= 0
- x_e6e12 - x_e12e11 + x_e6e11 >= - 1
x_e6e1 + x_e1e7 - x_e6e7 >= 0
- x_e6e1 - x_e1e7 + x_e6e7 >= - 1
x_e6e1 + x_e1e2 - x_e6e2 >= 0
- x_e6e1 - x_e1e2 + x_e6e2 >= - 1
x_e6e1 + x_e1e3 - x_e6e3 >= 0
- x_e6e1 - x_e1e3 + x_e6e3 >= - 1
x_e6e1 + x_e1e9 - x_e6e9 >= 0
- x_e6e1 - x_e1e9 + x_e6e9 >= - 1
x_e6e1 + x_e1e10 - x_e6e10 >= 0
- x_e6e1 - x_e1e10 + x_e6e10 >= - 1
x_e6e1 + x_e1e11 - x_e6e11 >= 0
- x_e6e1 - x_e1e11 + x_e6e11 >= - 1
x_e6e7 + x_e7e2 - x_e6e2 >= 0
- x_e6e7 - x_e7e2 + x_e6e2 >= - 1
x_e6e7 + x_e7e3 - x_e6e3 >= 0
- x_e6e7 - x_e7e3 + x_e6e3 >= - 1
x_e6e7 + x_e7e9 - x_e6e9 >= 0
- x_e6e7 - x_e7e9 + x_e6e9 >= - 1
x_e6e7 + x_e7e10 - x_e6e10 >= 0
- x_e6e7 - x_e7e10 + x_e6e10 >= - 1
x_e6e7 + x_e7e11 - x_e6e11 >= 0
- x_e6e7 - x_e7e11 + x_e6e11 >= - 1
x_e6e2 + x_e2e3 - x_e6e3 >= 0
- x_e6e2 - x_e2e3 + x_e6e3 >= - 1
x_e6e2 + x_e2e9 - x_e6e9 >= 0
- x_e6e2 - x_e2e9 + x_e6e9 >= - 1
x_e6e2 + x_e2e10 - x_e6e10 >= 0
- x_e6e2 - x_e2e10 + x_e6e10 >= - 1
x_e6e2 + x_e2e11 - x_e6e11 >= 0
- x_e6e2 - x_e2e11 + x_e6e11 >= - 1
x_e6e3 + x_e3e9 - x_e6e9 >= 0
- x_e6e3 - x_e3e9 + x_e6e9 >= - 1
x_e6e3 + x_e3e10 - x_e6e10 >= 0
- x_e6e3 - x_e3e10 + x_e6e10 >= - 1
x_e6e3 + x_e3e11 - x_e6e11 >= 0
- x_e6e3 - x_e3e11 + x_e6e11 >= - 1
x_e6e9 + x_e9e10 - x_e6e10 >= 0
- x_e6e9 - x_e9e10 + x_e6e10 >= - 1
x_e6e9 + x_e9e11 - x_e6e11 >= 0
- x_e6e9 - x_e9e11 + x_e6e11 >= - 1
x_e6e10 + x_e10e11 - x_e6e11 >= 0
- x_e6e10 - x_e10e11 + x_e6e11 >= - 1
x_e8e5 + x_e5e12 - x_e8e12 >= 0
- x_e8e5 - x_e5e12 + x_e8e12 >= - 1
x_e8e5 + x_e5e1 - x_e8e1 >= 0
- x_e8e5 - x_e5e1 + x_e8e1 >= - 1
x_e8e5 + x_e5e7 - x_e8e7 >= 0
- x_e8e5 - x_e5e7 + x_e8e7 >= - 1
x_e8e5 + x_e5e2 - x_e8e2 >= 0
- x_e8e5 - x_e5e2 + x_e8e2 >= - 1
x_e8e5 + x_e5e3 - x_e8e3 >= 0
- x_e8e5 - x_e5e3 + x_e8e3 >= - 1
x_e8e5 + x_e5e9 - x_e8e9 >= 0
- x_e8e5 - x_e5e9 + x_e8e9 >= - 1
x_e8e5 + x_e5e10 - x_e8e10 >= 0
- x_e8e5 - x_e5e10 + x_e8e10 >= - 1
x_e8e5 + x_e5e11 - x_e8e11 >= 0
- x_e8e5 - x_e5e11 + x_e8e11 >= - 1
x_e8e12 + x_e12e1 - x_e8e1 >= 0
- x_e8e12 - x_e12e1 + x_e8e1 >= - 1
x_e8e12 + x_e12e7 - x_e8e7 >= 0
- x_e8e12 - x_e12e7 + x_e8e7 >= - 1
x_e8e12 + x_e12e2 - x_e8e2 >= 0
- x_e8e12 - x_e12e2 + x_e8e2 >= - 1
x_e8e12 + x_e12e3 - x_e8e3 >= 0
- x_e8e12 - x_e12e3 + x_e8e3 >= - 1
x_e8e12 + x_e12e9 - x_e8e9 >= 0
- x_e8e12 - x_e12e9 + x_e8e9 >= - 1
x_e8e12 + x_e12e10 - x_e8e10 >= 0
- x_e8e12 - x_e12e10 + x_e8e10 >= - 1
x_e8e12 + x_e12e11 - x_e8e11 >= 0
- x_e8e12 - x_e12e11 + x_e8e11 >= - 1
x_e8e1 + x_e1e7 - x_e8e7 >= 0
- x_e8e1 - x_e1e7 + x_e8e7 >= - 1
x_e8e1 + x_e1e2 - x_e8e2 >= 0
- x_e8e1 - x_e1e2 + x_e8e2 >= - 1
x_e8e1 + x_e1e3 - x_e8e3 >= 0
- x_e8e1 - x_e1e3 + x_e8e3 >= - 1
x_e8e1 + x_e1e9 - x_e8e9 >= 0
- x_e8e1 - x_e1e9 + x_e8e9 >= - 1
x_e8e1 + x_e1e10 - x_e8e10 >= 0
- x_e8e1 - x_e1e10 + x_e8e10 >= - 1
x_e8e1 + x_e1e11 - x_e8e11 >= 0
- x_e8e1 - x_e1e11 + x_e8e11 >= - 1
x_e8e7 + x_e7e2 - x_e8e2 >= 0
- x_e8e7 - x_e7e2 + x_e8e2 >= - 1
x_e8e7 + x_e7e3 - x_e8e3 >= 0
- x_e8e7 - x_e7e3 + x_e8e3 >= - 1
x_e8e7 + x_e7e9 - x_e8e9 >= 0
- x_e8e7 - x_e7e9 + x_e8e9 >= - 1
x_e8e7 + x_e7e10 - x_e8e10 >= 0
- x_e8e7 - x_e7e10 + x_e8e10 >= - 1
x_e8e7 + x_e7e11 - x_e8e11 >= 0
- x_e8e7 - x_e7e11 + x_e8e11 >= - 1
x_e8e2 + x_e2e3 - x_e8e3 >= 0
- x_e8e2 - x_e2e3 + x_e8e3 >= - 1
x_e8e2 + x_e2e9 - x_e8e9 >= 0
- x_e8e2 - x_e2e9 + x_e8e9 >= - 1
x_e8e2 + x_e2e10 - x_e8e10 >= 0
- x_e8e2 - x_e2e10 + x_e8e10 >= - 1
x_e8e2 + x_e2e11 - x_e8e11 >= 0
- x_e8e2 - x_e2e11 + x_e8e11 >= - 1
x_e8e3 + x_e3e9 - x_e8e9 >= 0
- x_e8e3 - x_e3e9 + x_e8e9 >= - 1
x_e8e3 + x_e3e10 - x_e8e10 >= 0
- x_e8e3 - x_e3e10 + x_e8e10 >= - 1
x_e8e3 + x_e3e11 - x_e8e11 >= 0
- x_e8e3 - x_e3e11 + x_e8e11 >= - 1
x_e8e9 + x_e9e10 - x_e8e10 >= 0
- x_e8e9 - x_e9e10 + x_e8e10 >= - 1
x_e8e9 + x_e9e11 - x_e8e11 >= 0
- x_e8e9 - x_e9e11 + x_e8e11 >= - 1
x_e8e10 + x_e10e11 - x_e8e11 >= 0
- x_e8e10 - x_e10e11 + x_e8e11 >= - 1
x_e5e12 + x_e12e1 - x_e5e1 >= 0
- x_e5e12 - x_e12e1 + x_e5e1 >= - 1
x_e5e12 + x_e12e7 - x_e5e7 >= 0
- x_e5e12 - x_e12e7 + x_e5e7 >= - 1
x_e5e12 + x_e12e2 - x_e5e2 >= 0
- x_e5e12 - x_e12e2 + x_e5e2 >= - 1
x_e5e12 + x_e12e3 - x_e5e3 >= 0
- x_e5e12 - x_e12e3 + x_e5e3 >= - 1
x_e5e12 + x_e12e9 - x_e5e9 >= 0
- x_e5e12 - x_e12e9 + x_e5e9 >= - 1
x_e5e12 + x_e12e10 - x_e5e10 >= 0
- x_e5e12 - x_e12e10 + x_e5e10 >= - 1
x_e5e12 + x_e12e11 - x_e5e11 >= 0
- x_e5e12 - x_e12e11 + x_e5e11 >= - 1
x_e5e1 + x_e1e7 - x_e5e7 >= 0
- x_e5e1 - x_e1e7 + x_e5e7 >= - 1
x_e5e1 + x_e1e2 - x_e5e2 >= 0
- x_e5e1 - x_e1e2 + x_e5e2 >= - 1
x_e5e1 + x_e1e3 - x_e5e3 >= 0
- x_e5e1 - x_e1e3 + x_e5e3 >= - 1
x_e5e1 + x_e1e9 - x_e5e9 >= 0
- x_e5e1 - x_e1e9 + x_e5e9 >= - 1
x_e5e1 + x_e1e10 - x_e5e10 >= 0
- x_e5e1 - x_e1e10 + x_e5e10 >= - 1
x_e5e1 + x_e1e11 - x_e5e11 >= 0
- x_e5e1 - x_e1e11 + x_e5e11 >= - 1
x_e5e7 + x_e7e2 - x_e5e2 >= 0
- x_e5e7 - x_e7e2 + x_e5e2 >= - 1
x_e5e7 + x_e7e3 - x_e5e3 >= 0
- x_e5e7 - x_e7e3 + x_e5e3 >= - 1
x_e5e7 + x_e7e9 - x_e5e9 >= 0
- x_e5e7 - x_e7e9 + x_e5e9 >= - 1
x_e5e7 + x_e7e10 - x_e5e10 >= 0
- x_e5e7 - x_e7e10 + x_e5e10 >= - 1
x_e5e7 + x_e7e11 - x_e5e11 >= 0
- x_e5e7 - x_e7e11 + x_e5e11 >= - 1
x_e5e2 + x_e2e3 - x_e5e3 >= 0
- x_e5e2 - x_e2e3 + x_e5e3 >= - 1
x_e5e2 + x_e2e9 - x_e5e9 >= 0
- x_e5e2 - x_e2e9 + x_e5e9 >= - 1
x_e5e2 + x_e2e10 - x_e5e10 >= 0
- x_e5e2 - x_e2e10 + x_e5e10 >= - 1
x_e5e2 + x_e2e11 - x_e5e11 >= 0
- x_e5e2 - x_e2e11 + x_e5e11 >= - 1
x_e5e3 + x_e3e9 - x_e5e9 >= 0
- x_e5e3 - x_e3e9 + x_e5e9 >= - 1
x_e5e3 + x_e3e10 - x_e5e10 >= 0
- x_e5e3 - x_e3e10 + x_e5e10 >= - 1
x_e5e3 + x_e3e11 - x_e5e11 >= 0
- x_e5e3 - x_e3e11 + x_e5e11 >= - 1
x_e5e9 + x_e9e10 - x_e5e10 >= 0
- x_e5e9 - x_e9e10 + x_e5e10 >= - 1
x_e5e9 + x_e9e11 - x_e5e11 >= 0
- x_e5e9 - x_e9e11 + x_e5e11 >= - 1
x_e5e10 + x_e10e11 - x_e5e11 >= 0
- x_e5e10 - x_e10e11 + x_e5e11 >= - 1
x_e12e1 + x_e1e7 - x_e12e7 >= 0
- x_e12e1 - x_e1e7 + x_e12e7 >= - 1
x_e12e1 + x_e1e2 - x_e12e2 >= 0
- x_e12e1 - x_e1e2 + x_e12e2 >= - 1
x_e12e1 + x_e1e3 - x_e12e3 >= 0
- x_e12e1 - x_e1e3 + x_e12e3 >= - 1
x_e12e1 + x_e1e9 - x_e12e9 >= 0
- x_e12e1 - x_e1e9 + x_e12e9 >= - 1
x_e12e1 + x_e1e10 - x_e12e10 >= 0
- x_e12e1 - x_e1e10 + x_e12e10 >= - 1
x_e12e1 + x_e1e11 - x_e12e11 >= 0
- x_e12e1 - x_e1e11 + x_e12e11 >= - 1
x_e12e7 + x_e7e2 - x_e12e2 >= 0
- x_e12e7 - x_e7e2 + x_e12e2 >= - 1
x_e12e7 + x_e7e3 - x_e12e3 >= 0
- x_e12e7 - x_e7e3 + x_e12e3 >= - 1
x_e12e7 + x_e7e9 - x_e12e9 >= 0
- x_e12e7 - x_e7e9 + x_e12e9 >= - 1
x_e12e7 + x_e7e10 - x_e12e10 >= 0
- x_e12e7 - x_e7e10 + x_e12e10 >= - 1
x_e12e7 + x_e7e11 - x_e12e11 >= 0
- x_e12e7 - x_e7e11 + x_e12e11 >= - 1
x_e12e2 + x_e2e3 - x_e12e3 >= 0
- x_e12e2 - x_e2e3 + x_e12e3 >= - 1
x_e12e2 + x_e2e9 - x_e12e9 >= 0
- x_e12e2 - x_e2e9 + x_e12e9 >= - 1
x_e12e2 + x_e2e10 - x_e12e10 >= 0
- x_e12e2 - x_e2e10 + x_e12e10 >= - 1
x_e12e2 + x_e2e11 - x_e12e11 >= 0
- x_e12e2 - x_e2e11 + x_e12e11 >= - 1
x_e12e3 + x_e3e9 - x_e12e9 >= 0
- x_e12e3 - x_e3e9 + x_e12e9 >= - 1
x_e12e3 + x_e3e10 - x_e12e10 >= 0
- x_e12e3 - x_e3e10 + x_e12e10 >= - 1
x_e12e3 + x_e3e11 - x_e12e11 >= 0
- x_e12e3 - x_e3e11 + x_e12e11 >= - 1
x_e12e9 + x_e9e10 - x_e12e10 >= 0
- x_e12e9 - x_e9e10 + x_e12e10 >= - 1
x_e12e9 + x_e9e11 - x_e12e11 >= 0
- x_e12e9 - x_e9e11 + x_e12e11 >= - 1
x_e12e10 + x_e10e11 - x_e12e11 >= 0
- x_e12e10 - x_e10e11 + x_e12e11 >= - 1
x_e1e7 + x_e7e2 - x_e1e2 >= 0
- x_e1e7 - x_e7e2 + x_e1e2 >= - 1
x_e1e7 + x_e7e3 - x_e1e3 >= 0
- x_e1e7 - x_e7e3 + x_e1e3 >= - 1
x_e1e7 + x_e7e9 - x_e1e9 >= 0
- x_e1e7 - x_e7e9 + x_e1e9 >= - 1
x_e1e7 + x_e7e10 - x_e1e10 >= 0
- x_e1e7 - x_e7e10 + x_e1e10 >= - 1
x_e1e7 + x_e7e11 - x_e1e11 >= 0
- x_e1e7 - x_e7e11 + x_e1e11 >= - 1
x_e1e2 + x_e2e3 - x_e1e3 >= 0
- x_e1e2 - x_e2e3 + x_e1e3 >= - 1
x_e1e2 + x_e2e9 - x_e1e9 >= 0
- x_e1e2 - x_e2e9 + x_e1e9 >= - 1
x_e1e2 + x_e2e10 - x_e1e10 >= 0
- x_e1e2 - x_e2e10 + x_e1e10 >= - 1
x_e1e2 + x_e2e11 - x_e1e11 >= 0
- x_e1e2 - x_e2e11 + x_e1e11 >= - 1
x_e1e3 + x_e3e9 - x_e1e9 >= 0
- x_e1e3 - x_e3e9 + x_e1e9 >= - 1
x_e1e3 + x_e3e10 - x_e1e10 >= 0
- x_e1e3 - x_e3e10 + x_e1e10 >= - 1
x_e1e3 + x_e3e11 - x_e1e11 >= 0
- x_e1e3 - x_e3e11 + x_e1e11 >= - 1
x_e1e9 + x_e9e10 - x_e1e10 >= 0
- x_e1e9 - x_e9e10 + x_e1e10 >= - 1
x_e1e9 + x_e9e11 - x_e1e11 >= 0
- x_e1e9 - x_e9e11 + x_e1e11 >= - 1
x_e1e10 + x_e10e11 - x_e1e11 >= 0
- x_e1e10 - x_e10e11 + x_e1e11 >= - 1
x_e7e2 + x_e2e3 - x_e7e3 >= 0
- x_e7e2 - x_e2e3 + x_e7e3 >= - 1
x_e7e2 + x_e2e9 - x_e7e9 >= 0
- x_e7e2 - x_e2e9 + x_e7e9 >= - 1
x_e7e2 + x_e2e10 - x_e7e10 >= 0
- x_e7e2 - x_e2e10 + x_e7e10 >= - 1
x_e7e2 + x_e2e11 - x_e7e11 >= 0
- x_e7e2 - x_e2e11 + x_e7e11 >= - 1
x_e7e3 + x_e3e9 - x_e7e9 >= 0
- x_e7e3 - x_e3e9 + x_e7e9 >= - 1
x_e7e3 + x_e3e10 - x_e7e10 >= 0
- x_e7e3 - x_e3e10 + x_e7e10 >= - 1
x_e7e3 + x_e3e11 - x_e7e11 >= 0
- x_e7e3 - x_e3e11 + x_e7e11 >= - 1
x_e7e9 + x_e9e10 - x_e7e10 >= 0
- x_e7e9 - x_e9e10 + x_e7e10 >= - 1
x_e7e9 + x_e9e11 - x_e7e11 >= 0
- x_e7e9 - x_e9e11 + x_e7e11 >= - 1
x_e7e10 + x_e10e11 - x_e7e11 >= 0
- x_e7e10 - x_e10e11 + x_e7e11 >= - 1
x_e2e3 + x_e3e9 - x_e2e9 >= 0
- x_e2e3 - x_e3e9 + x_e2e9 >= - 1
x_e2e3 + x_e3e10 - x_e2e10 >= 0
- x_e2e3 - x_e3e10 + x_e2e10 >= - 1
x_e2e3 + x_e3e11 - x_e2e11 >= 0
- x_e2e3 - x_e3e11 + x_e2e11 >= - 1
x_e2e9 + x_e9e10 - x_e2e10 >= 0
- x_e2e9 - x_e9e10 + x_e2e10 >= - 1
x_e2e9 + x_e9e11 - x_e2e11 >= 0
- x_e2e9 - x_e9e11 + x_e2e11 >= - 1
x_e2e10 + x_e10e11 - x_e2e11 >= 0
- x_e2e10 - x_e10e11 + x_e2e11 >= - 1
x_e3e9 + x_e9e10 - x_e3e10 >= 0
- x_e3e9 - x_e9e10 + x_e3e10 >= - 1
x_e3e9 + x_e9e11 - x_e3e11 >= 0
- x_e3e9 - x_e9e11 + x_e3e11 >= - 1
x_e3e10 + x_e10e11 - x_e3e11 >= 0
- x_e3e10 - x_e10e11 + x_e3e11 >= - 1
x_e9e10 + x_e10e11 - x_e9e11 >= 0
- x_e9e10 - x_e10e11 + x_e9e11 >= - 1
y_n0n1 + y_n1n2 - y_n0n2 >= 0
- y_n0n1 - y_n1n2 + y_n0n2 >= - 1
y_n0n1 + y_n1n3 - y_n0n3 >= 0
- y_n0n1 - y_n1n3 + y_n0n3 >= - 1
y_n0n1 + y_n1n4 - y_n0n4 >= 0
- y_n0n1 - y_n1n4 + y_n0n4 >= - 1
y_n0n1 + y_n1n5 - y_n0n5 >= 0
- y_n0n1 - y_n1n5 + y_n0n5 >= - 1
y_n0n1 + y_n1n6 - y_n0n6 >= 0
- y_n0n1 - y_n1n6 + y_n0n6 >= - 1
y_n0n1 + y_n1n7 - y_n0n7 >= 0
- y_n0n1 - y_n1n7 + y_n0n7 >= - 1
y_n0n1 + y_n1n8 - y_n0n8 >= 0
- y_n0n1 - y_n1n8 + y_n0n8 >= - 1
y_n0n1 + y_n1n9 - y_n0n9 >= 0
- y_n0n1 - y_n1n9 + y_n0n9 >= - 1
y_n0n2 + y_n2n3 - y_n0n3 >= 0
- y_n0n2 - y_n2n3 + y_n0n3 >= - 1
y_n0n2 + y_n2n4 - y_n0n4 >= 0
- y_n0n2 - y_n2n4 + y_n0n4 >= - 1
y_n0n2 + y_n2n5 - y_n0n5 >= 0
- y_n0n2 - y_n2n5 + y_n0n5 >= - 1
y_n0n2 + y_n2n6 - y_n0n6 >= 0
- y_n0n2 - y_n2n6 + y_n0n6 >= - 1
y_n0n2 + y_n2n7 - y_n0n7 >= 0
- y_n0n2 - y_n2n7 + y_n0n7 >= - 1
y_n0n2 + y_n2n8 - y_n0n8 >= 0
- y_n0n2 - y_n2n8 + y_n0n8 >= - 1
y_n0n2 + y_n2n9 - y_n0n9 >= 0
- y_n0n2 - y_n2n9 + y_n0n9 >= - 1
y_n0n3 + y_n3n4 - y_n0n4 >= 0
- y_n0n3 - y_n3n4 + y_n0n4 >= - 1
y_n0n3 + y_n3n5 - y_n0n5 >= 0
- y_n0n3 - y_n3n5 + y_n0n5 >= - 1
y_n0n3 + y_n3n6 - y_n0n6 >= 0
- y_n0n3 - y_n3n6 + y_n0n6 >= - 1
y_n0n3 + y_n3n7 - y_n0n7 >= 0
- y_n0n3 - y_n3n7 + y_n0n7 >= - 1
y_n0n3 + y_n3n8 - y_n0n8 >= 0
- y_n0n3 - y_n3n8 + y_n0n8 >= - 1
y_n0n3 + y_n3n9 - y_n0n9 >= 0
- y_n0n3 - y_n3n9 + y_n0n9 >= - 1
y_n0n4 + y_n4n5 - y_n0n5 >= 0
- y_n0n4 - y_n4n5 + y_n0n5 >= - 1
y_n0n4 + y_n4n6 - y_n0n6 >= 0
- y_n0n4 - y_n4n6 + y_n0n6 >= - 1
y_n0n4 + y_n4n7 - y_n0n7 >= 0
- y_n0n4 - y_n4n7 + y_n0n7 >= - 1
y_n0n4 + y_n4n8 - y_n0n8 >= 0
- y_n0n4 - y_n4n8 + y_n0n8 >= - 1
y_n0n4 + y_n4n9 - y_n0n9 >= 0
- y_n0n4 - y_n4n9 + y_n0n9 >= - 1
y_n0n5 + y_n5n6 - y_n0n6 >= 0
- y_n0n5 - y_n5n6 + y_n0n6 >= - 1
y_n0n5 + y_n5n7 - y_n0n7 >= 0
- y_n0n5 - y_n5n7 + y_n0n7 >= - 1
y_n0n5 + y_n5n8 - y_n0n8 >= 0
- y_n0n5 - y_n5n8 + y_n0n8 >= - 1
y_n0n5 + y_n5n9 - y_n0n9 >= 0
- y_n0n5 - y_n5n9 + y_n0n9 >= - 1
y_n0n6 + y_n6n7 - y_n0n7 >= 0
- y_n0n6 - y_n6n7 + y_n0n7 >= - 1
y_n0n6 + y_n6n8 - y_n0n8 >= 0
- y_n0n6 - y_n6n8 + y_n0n8 >= - 1
y_n0n6 + y_n6n9 - y_n0n9 >= 0
- y_n0n6 - y_n6n9 + y_n0n9 >= - 1
y_n0n7 + y_n7n8 - y_n0n8 >= 0
- y_n0n7 - y_n7n8 + y_n0n8 >= - 1
y_n0n7 + y_n7n9 - y_n0n9 >= 0
- y_n0n7 - y_n7n9 + y_n0n9 >= - 1
y_n0n8 + y_n8n9 - y_n0n9 >= 0
- y_n0n8 - y_n8n9 + y_n0n9 >= - 1
y_n1n2 + y_n2n3 - y_n1n3 >= 0
- y_n1n2 - y_n2n3 + y_n1n3 >= - 1
y_n1n2 + y_n2n4 - y_n1n4 >= 0
- y_n1n2 - y_n2n4 + y_n1n4 >= - 1
y_n1n2 + y_n2n5 - y_n1n5 >= 0
- y_n1n2 - y_n2n5 + y_n1n5 >= - 1
y_n1n2 + y_n2n6 - y_n1n6 >= 0
- y_n1n2 - y_n2n6 + y_n1n6 >= - 1
y_n1n2 + y_n2n7 - y_n1n7 >= 0
- y_n1n2 - y_n2n7 + y_n1n7 >= - 1
y_n1n2 + y_n2n8 - y_n1n8 >= 0
- y_n1n2 - y_n2n8 + y_n1n8 >= - 1
y_n1n2 + y_n2n9 - y_n1n9 >= 0
- y_n1n2 - y_n2n9 + y_n1n9 >= - 1
y_n1n3 + y_n3n4 - y_n1n4 >= 0
- y_n1n3 - y_n3n4 + y_n1n4 >= - 1
y_n1n3 + y_n3n5 - y_n1n5 >= 0
- y_n1n3 - y_n3n5 + y_n1n5 >= - 1
y_n1n3 + y_n3n6 - y_n1n6 >= 0
- y_n1n3 - y_n3n6 + y_n1n6 >= - 1
y_n1n3 + y_n3n7 - y_n1n7 >= 0
- y_n1n3 - y_n3n7 + y_n1n7 >= - 1
y_n1n3 + y_n3n8 - y_n1n8 >= 0
- y_n1n3 - y_n3n8 + y_n1n8 >= - 1
y_n1n3 + y_n3n9 - y_n1n9 >= 0
- y_n1n3 - y_n3n9 + y_n1n9 >= - 1
y_n1n4 + y_n4n5 - y_n1n5 >= 0
- y_n1n4 - y_n4n5 + y_n1n5 >= - 1
y_n1n4 + y_n4n6 - y_n1n6 >= 0
- y_n1n4 - y_n4n6 + y_n1n6 >= - 1
y_n1n4 + y_n4n7 - y_n1n7 >= 0
- y_n1n4 - y_n4n7 + y_n1n7 >= - 1
y_n1n4 + y_n4n8 - y_n1n8 >= 0
- y_n1n4 - y_n4n8 + y_n1n8 >= - 1
y_n1n4 + y_n4n9 - y_n1n9 >= 0
- y_n1n4 - y_n4n9 + y_n1n9 >= - 1
y_n1n5 + y_n5n6 - y_n1n6 >= 0
- y_n1n5 - y_n5n6 + y_n1n6 >= - 1
y_n1n5 + y_n5n7 - y_n1n7 >= 0
- y_n1n5 - y_n5n7 + y_n1n7 >= - 1
y_n1n5 + y_n5n8 - y_n1n8 >= 0
- y_n1n5 - y_n5n8 + y_n1n8 >= - 1
y_n1n5 + y_n5n9 - y_n1n9 >= 0
- y_n1n5 - y_n5n9 + y_n1n9 >= - 1
y_n1n6 + y_n6n7 - y_n1n7 >= 0
- y_n1n6 - y_n6n7 + y_n1n7 >= - 1
y_n1n6 + y_n6n8 - y_n1n8 >= 0
- y_n1n6 - y_n6n8 + y_n1n8 >= - 1
y_n1n6 + y_n6n9 - y_n1n9 >= 0
- y_n1n6 - y_n6n9 + y_n1n9 >= - 1
y_n1n7 + y_n7n8 - y_n1n8 >= 0
- y_n1n7 - y_n7n8 + y_n1n8 >= - 1
y_n1n7 + y_n7n9 - y_n1n9 >= 0
- y_n1n7 - y_n7n9 + y_n1n9 >= - 1
y_n1n8 + y_n8n9 - y_n1n9 >= 0
- y_n1n8 - y_n8n9 + y_n1n9 >= - 1
y_n2n3 + y_n3n4 - y_n2n4 >= 0
- y_n2n3 - y_n3n4 + y_n2n4 >= - 1
y_n2n3 + y_n3n5 - y_n2n5 >= 0
- y_n2n3 - y_n3n5 + y_n2n5 >= - 1
y_n2n3 + y_n3n6 - y_n2n6 >= 0
- y_n2n3 - y_n3n6 + y_n2n6 >= - 1
y_n2n3 + y_n3n7 - y_n2n7 >= 0
- y_n2n3 - y_n3n7 + y_n2n7 >= - 1
y_n2n3 + y_n3n8 - y_n2n8 >= 0
- y_n2n3 - y_n3n8 + y_n2n8 >= - 1
y_n2n3 + y_n3n9 - y_n2n9 >= 0
- y_n2n3 - y_n3n9 + y_n2n9 >= - 1
y_n2n4 + y_n4n5 - y_n2n5 >= 0
- y_n2n4 - y_n4n5 + y_n2n5 >= - 1
y_n2n4 + y_n4n6 - y_n2n6 >= 0
- y_n2n4 - y_n4n6 + y_n2n6 >= - 1
y_n2n4 + y_n4n7 - y_n2n7 >= 0
- y_n2n4 - y_n4n7 + y_n2n7 >= - 1
y_n2n4 + y_n4n8 - y_n2n8 >= 0
- y_n2n4 - y_n4n8 + y_n2n8 >= - 1
y_n2n4 + y_n4n9 - y_n2n9 >= 0
- y_n2n4 - y_n4n9 + y_n2n9 >= - 1
y_n2n5 + y_n5n6 - y_n2n6 >= 0
- y_n2n5 - y_n5n6 + y_n2n6 >= - 1
y_n2n5 + y_n5n7 - y_n2n7 >= 0
- y_n2n5 - y_n5n7 + y_n2n7 >= - 1
y_n2n5 + y_n5n8 - y_n2n8 >= 0
- y_n2n5 - y_n5n8 + y_n2n8 >= - 1
y_n2n5 + y_n5n9 - y_n2n9 >= 0
- y_n2n5 - y_n5n9 + y_n2n9 >= - 1
y_n2n6 + y_n6n7 - y_n2n7 >= 0
- y_n2n6 - y_n6n7 + y_n2n7 >= - 1
y_n2n6 + y_n6n8 - y_n2n8 >= 0
- y_n2n6 - y_n6n8 + y_n2n8 >= - 1
y_n2n6 + y_n6n9 - y_n2n9 >= 0
- y_n2n6 - y_n6n9 + y_n2n9 >= - 1
y_n2n7 + y_n7n8 - y_n2n8 >= 0
- y_n2n7 - y_n7n8 + y_n2n8 >= - 1
y_n2n7 + y_n7n9 - y_n2n9 >= 0
- y_n2n7 - y_n7n9 + y_n2n9 >= - 1
y_n2n8 + y_n8n9 - y_n2n9 >= 0
- y_n2n8 - y_n8n9 + y_n2n9 >= - 1
y_n3n4 + y_n4n5 - y_n3n5 >= 0
- y_n3n4 - y_n4n5 + y_n3n5 >= - 1
y_n3n4 + y_n4n6 - y_n3n6 >= 0
- y_n3n4 - y_n4n6 + y_n3n6 >= - 1
y_n3n4 + y_n4n7 - y_n3n7 >= 0
- y_n3n4 - y_n4n7 + y_n3n7 >= - 1
y_n3n4 + y_n4n8 - y_n3n8 >= 0
- y_n3n4 - y_n4n8 + y_n3n8 >= - 1
y_n3n4 + y_n4n9 - y_n3n9 >= 0
- y_n3n4 - y_n4n9 + y_n3n9 >= - 1
y_n3n5 + y_n5n6 - y_n3n6 >= 0
- y_n3n5 - y_n5n6 + y_n3n6 >= - 1
y_n3n5 + y_n5n7 - y_n3n7 >= 0
- y_n3n5 - y_n5n7 + y_n3n7 >= - 1
y_n3n5 + y_n5n8 - y_n3n8 >= 0
- y_n3n5 - y_n5n8 + y_n3n8 >= - 1
y_n3n5 + y_n5n9 - y_n3n9 >= 0
- y_n3n5 - y_n5n9 + y_n3n9 >= - 1
y_n3n6 + y_n6n7 - y_n3n7 >= 0
- y_n3n6 - y_n6n7 + y_n3n7 >= - 1
y_n3n6 + y_n6n8 - y_n3n8 >= 0
- y_n3n6 - y_n6n8 + y_n3n8 >= - 1
y_n3n6 + y_n6n9 - y_n3n9 >= 0
- y_n3n6 - y_n6n9 + y_n3n9 >= - 1
y_n3n7 + y_n7n8 - y_n3n8 >= 0
- y_n3n7 - y_n7n8 + y_n3n8 >= - 1
y_n3n7 + y_n7n9 - y_n3n9 >= 0
- y_n3n7 - y_n7n9 + y_n3n9 >= - 1
y_n3n8 + y_n8n9 - y_n3n9 >= 0
- y_n3n8 - y_n8n9 + y_n3n9 >= - 1
y_n4n5 + y_n5n6 - y_n4n6 >= 0
- y_n4n5 - y_n5n6 + y_n4n6 >= - 1
y_n4n5 + y_n5n7 - y_n4n7 >= 0
- y_n4n5 - y_n5n7 + y_n4n7 >= - 1
y_n4n5 + y_n5n8 - y_n4n8 >= 0
- y_n4n5 - y_n5n8 + y_n4n8 >= - 1
y_n4n5 + y_n5n9 - y_n4n9 >= 0
- y_n4n5 - y_n5n9 + y_n4n9 >= - 1
y_n4n6 + y_n6n7 - y_n4n7 >= 0
- y_n4n6 - y_n6n7 + y_n4n7 >= - 1
y_n4n6 + y_n6n8 - y_n4n8 >= 0
- y_n4n6 - y_n6n8 + y_n4n8 >= - 1
y_n4n6 + y_n6n9 - y_n4n9 >= 0
- y_n4n6 - y_n6n9 + y_n4n9 >= - 1
y_n4n7 + y_n7n8 - y_n4n8 >= 0
- y_n4n7 - y_n7n8 + y_n4n8 >= - 1
y_n4n7 + y_n7n9 - y_n4n9 >= 0
- y_n4n7 - y_n7n9 + y_n4n9 >= - 1
y_n4n8 + y_n8n9 - y_n4n9 >= 0
- y_n4n8 - y_n8n9 + y_n4n9 >= - 1
y_n5n6 + y_n6n7 - y_n5n7 >= 0
- y_n5n6 - y_n6n7 + y_n5n7 >= - 1
y_n5n6 + y_n6n8 - y_n5n8 >= 0
- y_n5n6 - y_n6n8 + y_n5n8 >= - 1
y_n5n6 + y_n6n9 - y_n5n9 >= 0
- y_n5n6 - y_n6n9 + y_n5n9 >= - 1
y_n5n7 + y_n7n8 - y_n5n8 >= 0
- y_n5n7 - y_n7n8 + y_n5n8 >= - 1
y_n5n7 + y_n7n9 - y_n5n9 >= 0
- y_n5n7 - y_n7n9 + y_n5n9 >= - 1
y_n5n8 + y_n8n9 - y_n5n9 >= 0
- y_n5n8 - y_n8n9 + y_n5n9 >= - 1
y_n6n7 + y_n7n8 - y_n6n8 >= 0
- y_n6n7 - y_n7n8 + y_n6n8 >= - 1
y_n6n7 + y_n7n9 - y_n6n9 >= 0
- y_n6n7 - y_n7n9 + y_n6n9 >= - 1
y_n6n8 + y_n8n9 - y_n6n9 >= 0
- y_n6n8 - y_n8n9 + y_n6n9 >= - 1
y_n7n8 + y_n8n9 - y_n7n9 >= 0
- y_n7n8 - y_n8n9 + y_n7n9 >= - 1
pos_e0 + x_e0e4 + x_e0e6 + x_e0e8 + x_e0e5 + x_e0e12 + x_e0e1 + x_e0e7 + x_e0e2 + x_e0e3 + x_e0e9 + x_e0e10 + x_e0e11 = 12
pos_e4 - x_e0e4 + x_e4e6 + x_e4e8 + x_e4e5 + x_e4e12 + x_e4e1 + x_e4e7 + x_e4e2 + x_e4e3 + x_e4e9 + x_e4e10 + x_e4e11 = 11
pos_e6 - x_e0e6 - x_e4e6 + x_e6e8 + x_e6e5 + x_e6e12 + x_e6e1 + x_e6e7 + x_e6e2 + x_e6e3 + x_e6e9 + x_e6e10 + x_e6e11 = 10
pos_e8 - x_e0e8 - x_e4e8 - x_e6e8 + x_e8e5 + x_e8e12 + x_e8e1 + x_e8e7 + x_e8e2 + x_e8e3 + x_e8e9 + x_e8e10 + x_e8e11 = 9
pos_e5 - x_e0e5 - x_e4e5 - x_e6e5 - x_e8e5 + x_e5e12 + x_e5e1 + x_e5e7 + x_e5e2 + x_e5e3 + x_e5e9 + x_e5e10 + x_e5e11 = 8
pos_e12 - x_e0e12 - x_e4e12 - x_e6e12 - x_e8e12 - x_e5e12 + x_e12e1 + x_e12e7 + x_e12e2 + x_e12e3 + x_e12e9 + x_e12e10 + x_e12e11 = 7
pos_e1 - x_e0e1 - x_e4e1 - x_e6e1 - x_e8e1 - x_e5e1 - x_e12e1 + x_e1e7 + x_e1e2 + x_e1e3 + x_e1e9 + x_e1e10 + x_e1e11 = 6
pos_e7 - x_e0e7 - x_e4e7 - x_e6e7 - x_e8e7 - x_e5e7 - x_e12e7 - x_e1e7 + x_e7e2 + x_e7e3 + x_e7e9 + x_e7e10 + x_e7e11 = 5
pos_e2 - x_e0e2 - x_e4e2 - x_e6e2 - x_e8e2 - x_e5e2 - x_e12e2 - x_e1e2 - x_e7e2 + x_e2e3 + x_e2e9 + x_e2e10 + x_e2e11 = 4
pos_e3 - x_e0e3 - x_e4e3 - x_e6e3 - x_e8e3 - x_e5e3 - x_e12e3 - x_e1e3 - x_e7e3 - x_e2e3 + x_e3e9 + x_e3e10 + x_e3e11 = 3
pos_e9 - x_e0e9 - x_e4e9 - x_e6e9 - x_e8e9 - x_e5e9 - x_e12e9 - x_e1e9 - x_e7e9 - x_e2e9 - x_e3e9 + x_e9e10 + x_e9e11 = 2
pos_e10 - x_e0e10 - x_e4e10 - x_e6e10 - x_e8e10 - x_e5e10 - x_e12e10 - x_e1e10 - x_e7e10 - x_e2e10 - x_e3e10 - x_e9e10 + x_e10e11 = 1
pos_e11 - x_e0e11 - x_e4e11 - x_e6e11 - x_e8e11 - x_e5e11 - x_e12e11 - x_e1e11 - x_e7e11 - x_e2e11 - x_e3e11 - x_e9e11 - x_e10e11 = 0
c_e0e4 - z_e0e4 <= 0
c_e0e4 - y_n1n6 <= 0
c_e0e4 - z_e0e4 - y_n1n6 >= -1
pos_e4 - pos_e0 + 50 z_e0e4 <= 51.01
pos_e4 - pos_e0 - 50 z_e0e4 >= -49.01
pos_e0 <= 13
pos_e4 <= 13
c_e0e6 - z_e0e6 <= 0
c_e0e6 - y_n1n7 <= 0
c_e0e6 - z_e0e6 - y_n1n7 >= -1
pos_e6 - pos_e0 + 50 z_e0e6 <= 51.01
pos_e6 - pos_e0 - 50 z_e0e6 >= -49.01
pos_e0 <= 13
pos_e6 <= 13
c_e0e8 - z_e0e8 <= 0
c_e0e8 - y_n1n8 <= 0
c_e0e8 - z_e0e8 - y_n1n8 >= -1
pos_e8 - pos_e0 + 50 z_e0e8 <= 51.01
pos_e8 - pos_e0 - 50 z_e0e8 >= -49.01
pos_e0 <= 13
pos_e8 <= 13
pos_e0 - pos_e4 + 50 z_e4e0 <= 51.01
pos_e0 - pos_e4 - 50 z_e4e0 >= -49.01
pos_e4 <= 13
pos_e0 <= 13
c_e4e6 - z_e4e6 <= 0
c_e4e6 - y_n6n7 <= 0
c_e4e6 - z_e4e6 - y_n6n7 >= -1
pos_e6 - pos_e4 + 50 z_e4e6 <= 51.01
pos_e6 - pos_e4 - 50 z_e4e6 >= -49.01
pos_e4 <= 13
pos_e6 <= 13
c_e4e8 - z_e4e8 <= 0
c_e4e8 - y_n6n8 <= 0
c_e4e8 - z_e4e8 - y_n6n8 >= -1
pos_e8 - pos_e4 + 50 z_e4e8 <= 51.01
pos_e8 - pos_e4 - 50 z_e4e8 >= -49.01
pos_e4 <= 13
pos_e8 <= 13
pos_e0 - pos_e6 + 50 z_e6e0 <= 51.01
pos_e0 - pos_e6 - 50 z_e6e0 >= -49.01
pos_e6 <= 13
pos_e0 <= 13
pos_e4 - pos_e6 + 50 z_e6e4 <= 51.01
pos_e4 - pos_e6 - 50 z_e6e4 >= -49.01
pos_e6 <= 13
pos_e4 <= 13
c_e6e8 - z_e6e8 <= 0
c_e6e8 - y_n7n8 <= 0
c_e6e8 - z_e6e8 - y_n7n8 >= -1
pos_e8 - pos_e6 + 50 z_e6e8 <= 51.01
pos_e8 - pos_e6 - 50 z_e6e8 >= -49.01
pos_e6 <= 13
pos_e8 <= 13
pos_e0 - pos_e8 + 50 z_e8e0 <= 51.01
pos_e0 - pos_e8 - 50 z_e8e0 >= -49.01
pos_e8 <= 13
pos_e0 <= 13
pos_e4 - pos_e8 + 50 z_e8e4 <= 51.01
pos_e4 - pos_e8 - 50 z_e8e4 >= -49.01
pos_e8 <= 13
pos_e4 <= 13
pos_e6 - pos_e8 + 50 z_e8e6 <= 51.01
pos_e6 - pos_e8 - 50 z_e8e6 >= -49.01
pos_e8 <= 13
pos_e6 <= 13
c_e5e12 - z_e5e12 <= 0
c_e5e12 - y_n3n5 <= 0
c_e5e12 - z_e5e12 - y_n3n5 >= -1
pos_e12 - pos_e5 + 50 z_e5e12 <= 51.01
pos_e12 - pos_e5 - 50 z_e5e12 >= -49.01
pos_e5 <= 13
pos_e12 <= 13
pos_e5 - pos_e12 + 50 z_e12e5 <= 51.01
pos_e5 - pos_e12 - 50 z_e12e5 >= -49.01
pos_e12 <= 13
pos_e5 <= 13
c_e5e1 - z_e5e1 <= 0
c_e5e1 - y_n2n4 <= 0
c_e5e1 - z_e5e1 - y_n2n4 >= -1
pos_e1 - pos_e5 + 50 z_e5e1 <= 51.01
pos_e1 - pos_e5 - 50 z_e5e1 >= -49.01
pos_e5 <= 13
pos_e1 <= 13
c_e5e7 - z_e5e7 <= 0
c_e5e7 - y_n2n6 <= 0
c_e5e7 - z_e5e7 - y_n2n6 >= -1
pos_e7 - pos_e5 + 50 z_e5e7 <= 51.01
pos_e7 - pos_e5 - 50 z_e5e7 >= -49.01
pos_e5 <= 13
pos_e7 <= 13
pos_e5 - pos_e1 + 50 z_e1e5 <= 51.01
pos_e5 - pos_e1 - 50 z_e1e5 >= -49.01
pos_e1 <= 13
pos_e5 <= 13
c_e1e7 - z_e1e7 <= 0
c_e1e7 - y_n4n6 <= 0
c_e1e7 - z_e1e7 - y_n4n6 >= -1
pos_e7 - pos_e1 + 50 z_e1e7 <= 51.01
pos_e7 - pos_e1 - 50 z_e1e7 >= -49.01
pos_e1 <= 13
pos_e7 <= 13
pos_e5 - pos_e7 + 50 z_e7e5 <= 51.01
pos_e5 - pos_e7 - 50 z_e7e5 >= -49.01
pos_e7 <= 13
pos_e5 <= 13
pos_e1 - pos_e7 + 50 z_e7e1 <= 51.01
pos_e1 - pos_e7 - 50 z_e7e1 >= -49.01
pos_e7 <= 13
pos_e1 <= 13
c_e1e2 - z_e1e2 <= 0
c_e1e2 - y_n3n5 <= 0
c_e1e2 - z_e1e2 - y_n3n5 >= -1
pos_e2 - pos_e1 + 50 z_e1e2 <= 51.01
pos_e2 - pos_e1 - 50 z_e1e2 >= -49.01
pos_e1 <= 13
pos_e2 <= 13
pos_e1 - pos_e2 + 50 z_e2e1 <= 51.01
pos_e1 - pos_e2 - 50 z_e2e1 >= -49.01
pos_e2 <= 13
pos_e1 <= 13
c_e12e2 - z_e12e2 <= 0
c_e12e2 - y_n2n4 <= 0
c_e12e2 - z_e12e2 - y_n2n4 >= -1
pos_e2 - pos_e12 + 50 z_e12e2 <= 51.01
pos_e2 - pos_e12 - 50 z_e12e2 >= -49.01
pos_e12 <= 13
pos_e2 <= 13
c_e12e3 - z_e12e3 <= 0
c_e12e3 - y_n2n6 <= 0
c_e12e3 - z_e12e3 - y_n2n6 >= -1
pos_e3 - pos_e12 + 50 z_e12e3 <= 51.01
pos_e3 - pos_e12 - 50 z_e12e3 >= -49.01
pos_e12 <= 13
pos_e3 <= 13
c_e12e9 - z_e12e9 <= 0
c_e12e9 - y_n2n8 <= 0
c_e12e9 - z_e12e9 - y_n2n8 >= -1
pos_e9 - pos_e12 + 50 z_e12e9 <= 51.01
pos_e9 - pos_e12 - 50 z_e12e9 >= -49.01
pos_e12 <= 13
pos_e9 <= 13
c_e12e10 - z_e12e10 <= 0
c_e12e10 - y_n2n9 <= 0
c_e12e10 - z_e12e10 - y_n2n9 >= -1
pos_e10 - pos_e12 + 50 z_e12e10 <= 51.01
pos_e10 - pos_e12 - 50 z_e12e10 >= -49.01
pos_e12 <= 13
pos_e10 <= 13
pos_e12 - pos_e2 + 50 z_e2e12 <= 51.01
pos_e12 - pos_e2 - 50 z_e2e12 >= -49.01
pos_e2 <= 13
pos_e12 <= 13
c_e2e3 - z_e2e3 <= 0
c_e2e3 - y_n4n6 <= 0
c_e2e3 - z_e2e3 - y_n4n6 >= -1
pos_e3 - pos_e2 + 50 z_e2e3 <= 51.01
pos_e3 - pos_e2 - 50 z_e2e3 >= -49.01
pos_e2 <= 13
pos_e3 <= 13
c_e2e9 - z_e2e9 <= 0
c_e2e9 - y_n4n8 <= 0
c_e2e9 - z_e2e9 - y_n4n8 >= -1
pos_e9 - pos_e2 + 50 z_e2e9 <= 51.01
pos_e9 - pos_e2 - 50 z_e2e9 >= -49.01
pos_e2 <= 13
pos_e9 <= 13
c_e2e10 - z_e2e10 <= 0
c_e2e10 - y_n4n9 <= 0
c_e2e10 - z_e2e10 - y_n4n9 >= -1
pos_e10 - pos_e2 + 50 z_e2e10 <= 51.01
pos_e10 - pos_e2 - 50 z_e2e10 >= -49.01
pos_e2 <= 13
pos_e10 <= 13
pos_e12 - pos_e3 + 50 z_e3e12 <= 51.01
pos_e12 - pos_e3 - 50 z_e3e12 >= -49.01
pos_e3 <= 13
pos_e12 <= 13
pos_e2 - pos_e3 + 50 z_e3e2 <= 51.01
pos_e2 - pos_e3 - 50 z_e3e2 >= -49.01
pos_e3 <= 13
pos_e2 <= 13
c_e3e9 - z_e3e9 <= 0
c_e3e9 - y_n6n8 <= 0
c_e3e9 - z_e3e9 - y_n6n8 >= -1
pos_e9 - pos_e3 + 50 z_e3e9 <= 51.01
pos_e9 - pos_e3 - 50 z_e3e9 >= -49.01
pos_e3 <= 13
pos_e9 <= 13
c_e3e10 - z_e3e10 <= 0
c_e3e10 - y_n6n9 <= 0
c_e3e10 - z_e3e10 - y_n6n9 >= -1
pos_e10 - pos_e3 + 50 z_e3e10 <= 51.01
pos_e10 - pos_e3 - 50 z_e3e10 >= -49.01
pos_e3 <= 13
pos_e10 <= 13
pos_e12 - pos_e9 + 50 z_e9e12 <= 51.01
pos_e12 - pos_e9 - 50 z_e9e12 >= -49.01
pos_e9 <= 13
pos_e12 <= 13
pos_e2 - pos_e9 + 50 z_e9e2 <= 51.01
pos_e2 - pos_e9 - 50 z_e9e2 >= -49.01
pos_e9 <= 13
pos_e2 <= 13
pos_e3 - pos_e9 + 50 z_e9e3 <= 51.01
pos_e3 - pos_e9 - 50 z_e9e3 >= -49.01
pos_e9 <= 13
pos_e3 <= 13
c_e9e10 - z_e9e10 <= 0
c_e9e10 - y_n8n9 <= 0
c_e9e10 - z_e9e10 - y_n8n9 >= -1
pos_e10 - pos_e9 + 50 z_e9e10 <= 51.01
pos_e10 - pos_e9 - 50 z_e9e10 >= -49.01
pos_e9 <= 13
pos_e10 <= 13
pos_e12 - pos_e10 + 50 z_e10e12 <= 51.01
pos_e12 - pos_e10 - 50 z_e10e12 >= -49.01
pos_e10 <= 13
pos_e12 <= 13
pos_e2 - pos_e10 + 50 z_e10e2 <= 51.01
pos_e2 - pos_e10 - 50 z_e10e2 >= -49.01
pos_e10 <= 13
pos_e2 <= 13
pos_e3 - pos_e10 + 50 z_e10e3 <= 51.01
pos_e3 - pos_e10 - 50 z_e10e3 >= -49.01
pos_e10 <= 13
pos_e3 <= 13
pos_e9 - pos_e10 + 50 z_e10e9 <= 51.01
pos_e9 - pos_e10 - 50 z_e10e9 >= -49.01
pos_e10 <= 13
pos_e9 <= 13
c_e4e7 - z_e4e7 <= 0
c_e4e7 - y_n0n3 <= 0
c_e4e7 - z_e4e7 - y_n0n3 >= -1
pos_e7 - pos_e4 + 50 z_e4e7 <= 51.01
pos_e7 - pos_e4 - 50 z_e4e7 >= -49.01
pos_e4 <= 13
pos_e7 <= 13
c_e4e3 - z_e4e3 <= 0
c_e4e3 - y_n0n5 <= 0
c_e4e3 - z_e4e3 - y_n0n5 >= -1
pos_e3 - pos_e4 + 50 z_e4e3 <= 51.01
pos_e3 - pos_e4 - 50 z_e4e3 >= -49.01
pos_e4 <= 13
pos_e3 <= 13
c_e4e11 - z_e4e11 <= 0
c_e4e11 - y_n0n9 <= 0
c_e4e11 - z_e4e11 - y_n0n9 >= -1
pos_e11 - pos_e4 + 50 z_e4e11 <= 51.01
pos_e11 - pos_e4 - 50 z_e4e11 >= -49.01
pos_e4 <= 13
pos_e11 <= 13
pos_e4 - pos_e7 + 50 z_e7e4 <= 51.01
pos_e4 - pos_e7 - 50 z_e7e4 >= -49.01
pos_e7 <= 13
pos_e4 <= 13
c_e7e3 - z_e7e3 <= 0
c_e7e3 - y_n3n5 <= 0
c_e7e3 - z_e7e3 - y_n3n5 >= -1
pos_e3 - pos_e7 + 50 z_e7e3 <= 51.01
pos_e3 - pos_e7 - 50 z_e7e3 >= -49.01
pos_e7 <= 13
pos_e3 <= 13
c_e7e11 - z_e7e11 <= 0
c_e7e11 - y_n3n9 <= 0
c_e7e11 - z_e7e11 - y_n3n9 >= -1
pos_e11 - pos_e7 + 50 z_e7e11 <= 51.01
pos_e11 - pos_e7 - 50 z_e7e11 >= -49.01
pos_e7 <= 13
pos_e11 <= 13
pos_e4 - pos_e3 + 50 z_e3e4 <= 51.01
pos_e4 - pos_e3 - 50 z_e3e4 >= -49.01
pos_e3 <= 13
pos_e4 <= 13
pos_e7 - pos_e3 + 50 z_e3e7 <= 51.01
pos_e7 - pos_e3 - 50 z_e3e7 >= -49.01
pos_e3 <= 13
pos_e7 <= 13
c_e3e11 - z_e3e11 <= 0
c_e3e11 - y_n5n9 <= 0
c_e3e11 - z_e3e11 - y_n5n9 >= -1
pos_e11 - pos_e3 + 50 z_e3e11 <= 51.01
pos_e11 - pos_e3 - 50 z_e3e11 >= -49.01
pos_e3 <= 13
pos_e11 <= 13
pos_e4 - pos_e11 + 50 z_e11e4 <= 51.01
pos_e4 - pos_e11 - 50 z_e11e4 >= -49.01
pos_e11 <= 13
pos_e4 <= 13
pos_e7 - pos_e11 + 50 z_e11e7 <= 51.01
pos_e7 - pos_e11 - 50 z_e11e7 >= -49.01
pos_e11 <= 13
pos_e7 <= 13
pos_e3 - pos_e11 + 50 z_e11e3 <= 51.01
pos_e3 - pos_e11 - 50 z_e11e3 >= -49.01
pos_e11 <= 13
pos_e3 <= 13
c_e8e9 - z_e8e9 <= 0
c_e8e9 - y_n0n5 <= 0
c_e8e9 - z_e8e9 - y_n0n5 >= -1
pos_e9 - pos_e8 + 50 z_e8e9 <= 51.01
pos_e9 - pos_e8 - 50 z_e8e9 >= -49.01
pos_e8 <= 13
pos_e9 <= 13
pos_e8 - pos_e9 + 50 z_e9e8 <= 51.01
pos_e8 - pos_e9 - 50 z_e9e8 >= -49.01
pos_e9 <= 13
pos_e8 <= 13
c_e10e11 - z_e10e11 <= 0
c_e10e11 - y_n5n6 <= 0
c_e10e11 - z_e10e11 - y_n5n6 >= -1
pos_e11 - pos_e10 + 50 z_e10e11 <= 51.01
pos_e11 - pos_e10 - 50 z_e10e11 >= -49.01
pos_e10 <= 13
pos_e11 <= 13
pos_e10 - pos_e11 + 50 z_e11e10 <= 51.01
pos_e10 - pos_e11 - 50 z_e11e10 >= -49.01
pos_e11 <= 13
pos_e10 <= 13
Binaries
  x_e0e4 x_e0e6 x_e0e8 x_e0e5 x_e0e12 x_e0e1 x_e0e7 x_e0e2 x_e0e3 x_e0e9 x_e0e10 x_e0e11 x_e4e6 x_e4e8 x_e4e5 x_e4e12 x_e4e1 x_e4e7 x_e4e2 x_e4e3 x_e4e9 x_e4e10 x_e4e11 x_e6e8 x_e6e5 x_e6e12 x_e6e1 x_e6e7 x_e6e2 x_e6e3 x_e6e9 x_e6e10 x_e6e11 x_e8e5 x_e8e12 x_e8e1 x_e8e7 x_e8e2 x_e8e3 x_e8e9 x_e8e10 x_e8e11 x_e5e12 x_e5e1 x_e5e7 x_e5e2 x_e5e3 x_e5e9 x_e5e10 x_e5e11 x_e12e1 x_e12e7 x_e12e2 x_e12e3 x_e12e9 x_e12e10 x_e12e11 x_e1e7 x_e1e2 x_e1e3 x_e1e9 x_e1e10 x_e1e11 x_e7e2 x_e7e3 x_e7e9 x_e7e10 x_e7e11 x_e2e3 x_e2e9 x_e2e10 x_e2e11 x_e3e9 x_e3e10 x_e3e11 x_e9e10 x_e9e11 x_e10e11 y_n0n1 y_n0n2 y_n0n3 y_n0n4 y_n0n5 y_n0n6 y_n0n7 y_n0n8 y_n0n9 y_n1n2 y_n1n3 y_n1n4 y_n1n5 y_n1n6 y_n1n7 y_n1n8 y_n1n9 y_n2n3 y_n2n4 y_n2n5 y_n2n6 y_n2n7 y_n2n8 y_n2n9 y_n3n4 y_n3n5 y_n3n6 y_n3n7 y_n3n8 y_n3n9 y_n4n5 y_n4n6 y_n4n7 y_n4n8 y_n4n9 y_n5n6 y_n5n7 y_n5n8 y_n5n9 y_n6n7 y_n6n8 y_n6n9 y_n7n8 y_n7n9 y_n8n9 c_e0e4 z_e0e4 c_e0e6 z_e0e6 c_e0e8 z_e0e8 c_e4e0 z_e4e0 c_e4e6 z_e4e6 c_e4e8 z_e4e8 c_e6e0 z_e6e0 c_e6e4 z_e6e4 c_e6e8 z_e6e8 c_e8e0 z_e8e0 c_e8e4 z_e8e4 c_e8e6 z_e8e6 c_e5e12 z_e5e12 c_e12e5 z_e12e5 c_e5e1 z_e5e1 c_e5e7 z_e5e7 c_e1e5 z_e1e5 c_e1e7 z_e1e7 c_e7e5 z_e7e5 c_e7e1 z_e7e1 c_e1e2 z_e1e2 c_e2e1 z_e2e1 c_e12e2 z_e12e2 c_e12e3 z_e12e3 c_e12e9 z_e12e9 c_e12e10 z_e12e10 c_e2e12 z_e2e12 c_e2e3 z_e2e3 c_e2e9 z_e2e9 c_e2e10 z_e2e10 c_e3e12 z_e3e12 c_e3e2 z_e3e2 c_e3e9 z_e3e9 c_e3e10 z_e3e10 c_e9e12 z_e9e12 c_e9e2 z_e9e2 c_e9e3 z_e9e3 c_e9e10 z_e9e10 c_e10e12 z_e10e12 c_e10e2 z_e10e2 c_e10e3 z_e10e3 c_e10e9 z_e10e9 c_e4e7 z_e4e7 c_e4e3 z_e4e3 c_e4e11 z_e4e11 c_e7e4 z_e7e4 c_e7e3 z_e7e3 c_e7e11 z_e7e11 c_e3e4 z_e3e4 c_e3e7 z_e3e7 c_e3e11 z_e3e11 c_e11e4 z_e11e4 c_e11e7 z_e11e7 c_e11e3 z_e11e3 c_e8e9 z_e8e9 c_e9e8 z_e9e8 c_e10e11 z_e10e11 c_e11e10 z_e11e10
End
